words_hard_train/997.qaiger
aag 126 16 0 1 110
2
4
10
22
32
42
54
66
110
112
118
122
126
130
134
138
253
6 2 4
8 3 5
12 9 10
14 7 12
16 8 11
18 13 17
20 15 19
24 17 22
26 16 23
28 25 27
30 20 29
34 27 32
36 26 33
38 35 37
40 31 38
44 40 42
46 37 42
48 36 43
50 47 49
52 45 51
56 49 54
58 48 55
60 57 59
62 53 60
64 63 59
68 65 66
70 64 67
72 69 71
74 21 28
76 75 31
78 7 9
80 78 3
82 79 18
84 83 15
86 80 85
88 76 86
90 30 39
92 91 41
94 88 93
96 41 50
98 97 45
100 94 99
102 52 61
104 103 63
106 100 105
108 72 106
114 110 113
116 115 113
120 116 119
124 120 123
128 124 127
132 128 131
136 132 135
140 136 139
142 137 138
144 141 143
146 129 130
148 147 133
150 95 98
152 151 101
154 149 152
156 133 134
158 157 137
160 101 104
162 161 107
164 159 162
166 155 165
168 81 84
170 169 87
172 117 118
174 173 121
176 112 4
178 177 115
180 111 3
182 113 5
184 180 183
186 178 185
188 174 187
190 170 189
192 175 186
194 191 193
196 121 122
198 197 125
200 77 87
202 201 89
204 198 203
206 195 205
208 199 202
210 207 209
212 125 126
214 213 129
216 89 92
218 217 95
220 215 218
222 210 221
224 214 219
226 223 225
228 148 153
230 226 229
232 166 231
234 158 163
236 233 235
238 144 236
240 108 239
242 145 237
244 243 109
246 241 245
248 73 107
250 248 239
252 247 251
i0 2 y2[0]
i1 2 y2[1]
i2 2 y2[2]
i3 2 y2[3]
i4 2 y2[4]
i5 2 y2[5]
i6 2 y2[6]
i7 2 y2[7]
i8 1 x1[0]
i9 1 x1[1]
i10 1 x1[2]
i11 1 x1[3]
i12 1 x1[4]
i13 1 x1[5]
i14 1 x1[6]
i15 1 x1[7]
o0 bv[0]
c
simplified
  <
    subtract
      1 x1
      1
    subtract
      invert
        81
      2 y2
