words_hard_train/997.qaiger.qdimacs
p cnf 126 331
a 65 67 69 55 56 59 61 63 0
e 1 2 3 4 5 6 7 8 9 10 11 12 13 14 15 16 17 18 19 20 21 22 23 24 25 26 27 28 29 30 31 32 33 34 35 36 37 38 39 40 41 42 43 44 45 46 47 48 49 50 51 52 53 54 57 58 60 62 64 66 68 70 71 72 73 74 75 76 77 78 79 80 81 82 83 84 85 86 87 88 89 90 91 92 93 94 95 96 97 98 99 100 101 102 103 104 105 106 107 108 109 110 111 112 113 114 115 116 117 118 119 120 121 122 123 124 125 126 0
-1 -2 3 0
1 -3 0
2 -3 0
1 2 4 0
-1 -4 0
-2 -4 0
4 -5 6 0
-4 -6 0
5 -6 0
3 -6 7 0
-3 -7 0
6 -7 0
-4 5 8 0
4 -8 0
-5 -8 0
6 8 9 0
-6 -9 0
-8 -9 0
7 9 10 0
-7 -10 0
-9 -10 0
8 -11 12 0
-8 -12 0
11 -12 0
-8 11 13 0
8 -13 0
-11 -13 0
12 13 14 0
-12 -14 0
-13 -14 0
-10 14 15 0
10 -15 0
-14 -15 0
13 -16 17 0
-13 -17 0
16 -17 0
-13 16 18 0
13 -18 0
-16 -18 0
17 18 19 0
-17 -19 0
-18 -19 0
15 -19 20 0
-15 -20 0
19 -20 0
-20 -21 22 0
20 -22 0
21 -22 0
18 -21 23 0
-18 -23 0
21 -23 0
-18 21 24 0
18 -24 0
-21 -24 0
23 24 25 0
-23 -25 0
-24 -25 0
22 25 26 0
-22 -26 0
-25 -26 0
24 -27 28 0
-24 -28 0
27 -28 0
-24 27 29 0
24 -29 0
-27 -29 0
28 29 30 0
-28 -30 0
-29 -30 0
26 -30 31 0
-26 -31 0
30 -31 0
31 29 32 0
-31 -32 0
-29 -32 0
32 -33 34 0
-32 -34 0
33 -34 0
-32 33 35 0
32 -35 0
-33 -35 0
34 35 36 0
-34 -36 0
-35 -36 0
10 -14 37 0
-10 -37 0
14 -37 0
37 15 38 0
-37 -38 0
-15 -38 0
3 4 39 0
-3 -39 0
-4 -39 0
-39 1 40 0
39 -40 0
-1 -40 0
39 -9 41 0
-39 -41 0
9 -41 0
41 7 42 0
-41 -42 0
-7 -42 0
-40 42 43 0
40 -43 0
-42 -43 0
-38 -43 44 0
38 -44 0
43 -44 0
-15 19 45 0
15 -45 0
-19 -45 0
45 20 46 0
-45 -46 0
-20 -46 0
-44 46 47 0
44 -47 0
-46 -47 0
20 -25 48 0
-20 -48 0
25 -48 0
48 22 49 0
-48 -49 0
-22 -49 0
-47 49 50 0
47 -50 0
-49 -50 0
-26 30 51 0
26 -51 0
-30 -51 0
51 31 52 0
-51 -52 0
-31 -52 0
-50 52 53 0
50 -53 0
-52 -53 0
-36 -53 54 0
36 -54 0
53 -54 0
-55 56 57 0
55 -57 0
-56 -57 0
57 56 58 0
-57 -58 0
-56 -58 0
-58 59 60 0
58 -60 0
-59 -60 0
-60 61 62 0
60 -62 0
-61 -62 0
-62 63 64 0
62 -64 0
-63 -64 0
-64 65 66 0
64 -66 0
-65 -66 0
-66 67 68 0
66 -68 0
-67 -68 0
-68 69 70 0
68 -70 0
-69 -70 0
68 -69 71 0
-68 -71 0
69 -71 0
70 71 72 0
-70 -72 0
-71 -72 0
64 -65 73 0
-64 -73 0
65 -73 0
73 66 74 0
-73 -74 0
-66 -74 0
47 -49 75 0
-47 -75 0
49 -75 0
75 50 76 0
-75 -76 0
-50 -76 0
74 -76 77 0
-74 -77 0
76 -77 0
66 -67 78 0
-66 -78 0
67 -78 0
78 68 79 0
-78 -79 0
-68 -79 0
50 -52 80 0
-50 -80 0
52 -80 0
80 53 81 0
-80 -81 0
-53 -81 0
79 -81 82 0
-79 -82 0
81 -82 0
77 82 83 0
-77 -83 0
-82 -83 0
40 -42 84 0
-40 -84 0
42 -84 0
84 43 85 0
-84 -85 0
-43 -85 0
58 -59 86 0
-58 -86 0
59 -86 0
86 60 87 0
-86 -87 0
-60 -87 0
-56 -2 88 0
56 -88 0
2 -88 0
88 57 89 0
-88 -89 0
-57 -89 0
55 1 90 0
-55 -90 0
-1 -90 0
56 2 91 0
-56 -91 0
-2 -91 0
-90 91 92 0
90 -92 0
-91 -92 0
-89 92 93 0
89 -93 0
-92 -93 0
-87 93 94 0
87 -94 0
-93 -94 0
-85 94 95 0
85 -95 0
-94 -95 0
87 -93 96 0
-87 -96 0
93 -96 0
95 96 97 0
-95 -97 0
-96 -97 0
60 -61 98 0
-60 -98 0
61 -98 0
98 62 99 0
-98 -99 0
-62 -99 0
38 43 100 0
-38 -100 0
-43 -100 0
100 44 101 0
-100 -101 0
-44 -101 0
-99 101 102 0
99 -102 0
-101 -102 0
97 102 103 0
-97 -103 0
-102 -103 0
99 -101 104 0
-99 -104 0
101 -104 0
103 104 105 0
-103 -105 0
-104 -105 0
62 -63 106 0
-62 -106 0
63 -106 0
106 64 107 0
-106 -107 0
-64 -107 0
44 -46 108 0
-44 -108 0
46 -108 0
108 47 109 0
-108 -109 0
-47 -109 0
107 -109 110 0
-107 -110 0
109 -110 0
-105 110 111 0
105 -111 0
-110 -111 0
-107 109 112 0
107 -112 0
-109 -112 0
111 112 113 0
-111 -113 0
-112 -113 0
-74 76 114 0
74 -114 0
-76 -114 0
-113 114 115 0
113 -115 0
-114 -115 0
-83 115 116 0
83 -116 0
-115 -116 0
-79 81 117 0
79 -117 0
-81 -117 0
116 117 118 0
-116 -118 0
-117 -118 0
-72 -118 119 0
72 -119 0
118 -119 0
-54 119 120 0
54 -120 0
-119 -120 0
72 118 121 0
-72 -121 0
-118 -121 0
121 54 122 0
-121 -122 0
-54 -122 0
120 122 123 0
-120 -123 0
-122 -123 0
36 53 124 0
-36 -124 0
-53 -124 0
-124 119 125 0
124 -125 0
-119 -125 0
123 125 126 0
-123 -126 0
-125 -126 0
-126 0
